[2026-03-23T13:42:53.562Z] Pipeline "set_exp_2_exp_2_n029_c007_g001" → 2026_03_23_13_42_53_set_exp_2_exp_2_n029_c007_g001_max.sol
Set parameter WLSAccessID
Set parameter WLSSecret
Set parameter LicenseID to value 2792458
Set parameter LogFile to value "gurobi.log"
Using license file /root/gurobi.lic
Academic license 2792458 - for non-commercial use only - registered to an___@studenti.unipg.it

Gurobi Optimizer version 13.0.1 build v13.0.1rc0 (linux64 - "Ubuntu 24.04.4 LTS")
Copyright (c) 2026, Gurobi Optimization, LLC

Warning: Duplicate section found (read 'binary') - Is a variable name equal to an LP file format keyword?
Warning: Duplicate section found (read 'binary') - Is a variable name equal to an LP file format keyword?
Warning: Duplicate section found (read 'binary') - Is a variable name equal to an LP file format keyword?
Warning: Duplicate section found (read 'binary') - Is a variable name equal to an LP file format keyword?
Warning: Duplicate section found (read 'binary') - Is a variable name equal to an LP file format keyword?
Warning: Duplicate section found (read 'binary') - Is a variable name equal to an LP file format keyword?
Warning: Duplicate section found (read 'binary') - Is a variable name equal to an LP file format keyword?
Warning: Duplicate section found (read 'binary') - Is a variable name equal to an LP file format keyword?
Warning: Duplicate section found (read 'binary') - Is a variable name equal to an LP file format keyword?
Warning: Duplicate section found (read 'binary') - Is a variable name equal to an LP file format keyword?
Warning: Further warnings of this type will be omitted.
Read LP format model from file /root/bgw/data/uploads/2026_03_23_13_42_53_set_exp_2_exp_2_n029_c007_g001_max.lp
Reading time = 0.01 seconds
: 8516 rows, 664 columns, 25148 nonzeros

Using Gurobi shared library /opt/gurobi1301/linux64/lib/libgurobi.so.13.0.1

CPU model: AMD EPYC-Genoa Processor, instruction set [SSE2|AVX|AVX2|AVX512]
Thread count: 16 physical cores, 16 logical processors, using up to 16 threads

Academic license 2792458 - for non-commercial use only - registered to an___@studenti.unipg.it
Optimize a model with 8516 rows, 664 columns and 25148 nonzeros (Max)
Model fingerprint: 0x99a4c315
Model has 11 linear objective coefficients
Variable types: 40 continuous, 624 integer (624 binary)
Coefficient statistics:
  Matrix range     [1e+00, 3e+01]
  Objective range  [1e+00, 1e+00]
  Bounds range     [1e+00, 1e+00]
  RHS range        [1e+00, 3e+01]

Found heuristic solution: objective 11.0000000
Presolve removed 1151 rows and 222 columns
Presolve time: 0.05s
Presolved: 7365 rows, 442 columns, 22485 nonzeros
Variable types: 0 continuous, 442 integer (427 binary)

Root relaxation: objective 4.700000e+01, 642 iterations, 0.07 seconds (0.07 work units)

    Nodes    |    Current Node    |     Objective Bounds      |     Work
 Expl Unexpl |  Obj  Depth IntInf | Incumbent    BestBd   Gap | It/Node Time

     0     0   47.00000    0   35   11.00000   47.00000   327%     -    0s
H    0     0                      28.0000000   47.00000  67.9%     -    0s
H    0     0                      29.0000000   47.00000  62.1%     -    0s
H    0     0                      30.0000000   47.00000  56.7%     -    0s
H    0     0                      31.0000000   47.00000  51.6%     -    0s
     0     0   47.00000    0   42   31.00000   47.00000  51.6%     -    0s
     0     0   47.00000    0   42   31.00000   47.00000  51.6%     -    0s
     0     0   47.00000    0   53   31.00000   47.00000  51.6%     -    0s
     0     0   47.00000    0   38   31.00000   47.00000  51.6%     -    0s
     0     0   47.00000    0   43   31.00000   47.00000  51.6%     -    0s
     0     0   47.00000    0   43   31.00000   47.00000  51.6%     -    0s
     0     0   47.00000    0   48   31.00000   47.00000  51.6%     -    0s
     0     0   47.00000    0   36   31.00000   47.00000  51.6%     -    0s
H    0     0                      32.0000000   47.00000  46.9%     -    0s
     0     0   47.00000    0   41   32.00000   47.00000  46.9%     -    0s
     0     0   47.00000    0   46   32.00000   47.00000  46.9%     -    0s
     0     0   47.00000    0   31   32.00000   47.00000  46.9%     -    0s
     0     0   47.00000    0   46   32.00000   47.00000  46.9%     -    0s
     0     0   47.00000    0   31   32.00000   47.00000  46.9%     -    0s
     0     0   47.00000    0   34   32.00000   47.00000  46.9%     -    0s
     0     0   47.00000    0   34   32.00000   47.00000  46.9%     -    0s
     0     0   47.00000    0   34   32.00000   47.00000  46.9%     -    0s
     0     0   47.00000    0   34   32.00000   47.00000  46.9%     -    0s
     0     2   47.00000    0   34   32.00000   47.00000  46.9%     -    0s
  3275   105 infeasible   15        32.00000   35.92593  12.3%   154    5s

Cutting planes:
  Cover: 11
  StrongCG: 1
  Inf proof: 81
  Zero half: 7

Explored 3843 nodes (594977 simplex iterations) in 5.57 seconds (9.60 work units)
Thread count was 16 (of 16 available processors)

Solution count 6: 32 31 30 ... 11

Optimal solution found (tolerance 1.00e-04)
Best objective 3.200000000000e+01, best bound 3.200000000000e+01, gap 0.0000%

Wrote result file '/root/bgw/data/results/2026_03_23_13_42_53_set_exp_2_exp_2_n029_c007_g001_max.sol'

